\ Model QCP
\ LP format - for model browsing. Use MPS format to capture full model detail.
Minimize
  z + y
Subject To
 Cut_0: z + [ ] >= 1080
 Cut_1: z + [ 4.615384615384615 y ^2 ] >= 2086.153846153846
 Cut_2: z + [ ] >= 1080
 Cut_3: z + [ ] >= 1080
 Cut_4: z + [ ] >= 1080
 Cut_5: z + [ ] >= 1080
 Cut_6: z + [ ] >= 1080
 Cut_7: z + [ ] >= 1080
 Cut_8: z + [ ] >= 1080
 Cut_9: z + [ ] >= 1080
Bounds
 1080 <= z <= 1260
 13.37908816025965 <= y <= 14.7648230602334
End
